5 5
3 47 4 18 0 84 2 28 1 77
1 5 3 30 0 1 2 86 4 82
2 46 0 69 3 31 1 70 4 91
4 56 1 89 3 93 0 28 2 16
0 54 3 53 2 12 4 20 1 82
-1
0 1 3 4 5
0 3 5
0 1 2 4 5
0 1 2 3 5
0 1 3 4 5
-2
73 172 223 375
54 272
58 134 245 468
88 175 287 382
83 142 218 224

388 7
20 7 11 2 18
5 16 24 13 4
10 22 8 3 19
6 21 0 12 17
15 23 1 9 14
